c preprocessed version of GrayGraph, 54 vertices, 81 edges
p td 54 81
0 1
0 22
0 49
1 12
1 52
2 3
2 47
3 4
3 30
4 5
4 36
5 6
5 13
6 7
7 8
7 21
8 9
9 10
9 37
10 11
10 42
11 13
11 19
12 23
12 44
13 14
14 15
14 28
15 16
16 17
16 43
17 18
17 49
18 19
18 26
19 20
20 21
20 35
21 22
22 24
23 8
23 34
24 25
25 26
25 32
26 27
27 28
27 41
28 29
29 30
30 31
31 32
31 39
32 33
33 35
33 48
34 40
34 45
35 36
36 37
37 38
38 39
38 46
39 40
40 41
41 42
42 43
43 44
44 46
45 24
45 50
46 47
47 48
48 49
50 29
50 51
51 6
51 52
52 53
53 2
53 15
